p tw 576 781
1 2
1 179
3 4
3 107
3 108
5 6
5 181
7 8
7 110
7 111
9 10
9 108
9 109
11 12
11 113
11 114
13 14
13 116
13 117
15 16
15 111
15 112
17 18
17 119
17 120
19 20
19 114
19 115
21 22
21 122
21 123
23 24
23 190
25 26
25 125
25 126
27 28
27 117
27 118
29 30
29 128
29 129
31 32
31 120
31 121
33 34
33 131
33 132
35 36
35 123
35 124
37 38
37 134
37 135
39 40
39 198
41 42
41 137
41 138
43 44
43 126
43 127
45 46
45 140
45 141
47 48
47 129
47 130
49 50
49 143
49 144
51 52
51 132
51 133
53 54
53 146
53 147
55 56
55 135
55 136
57 58
57 207
59 60
59 149
59 150
61 62
61 138
61 139
63 64
63 152
63 153
65 66
65 141
65 142
67 68
67 155
67 156
69 70
69 144
69 145
71 72
71 158
71 159
73 74
73 147
73 148
75 76
75 150
75 151
77 78
77 161
77 162
79 80
79 153
79 154
81 82
81 164
81 165
83 84
83 156
83 157
85 86
85 167
85 168
87 88
87 159
87 160
89 90
89 162
89 163
91 92
91 170
91 171
93 94
93 165
93 166
95 96
95 173
95 174
97 98
97 168
97 169
99 100
99 171
99 172
101 102
101 176
101 177
103 104
103 174
103 175
105 106
105 177
105 178
107 108
107 180
108 109
109 183
110 111
110 182
111 112
112 186
113 114
113 184
114 115
115 188
116 117
116 185
117 118
118 192
119 120
119 187
120 121
121 194
122 123
122 189
123 124
124 196
125 126
125 191
126 127
127 200
128 129
128 193
129 130
130 202
131 132
131 195
132 133
133 204
134 135
134 197
135 136
136 206
137 138
137 199
138 139
139 209
140 141
140 201
141 142
142 211
143 144
143 203
144 145
145 213
146 147
146 205
147 148
148 215
149 150
149 208
150 151
151 216
152 153
152 210
153 154
154 218
155 156
155 212
156 157
157 220
158 159
158 214
159 160
160 222
161 162
161 217
162 163
163 223
164 165
164 219
165 166
166 225
167 168
167 221
168 169
169 227
170 171
170 224
171 172
172 228
173 174
173 226
174 175
175 230
176 177
176 229
177 178
178 231
179 232
179 233
180 290
181 235
181 236
182 233
182 234
183 238
183 239
184 294
185 236
185 237
186 241
186 242
187 239
187 240
188 244
188 245
189 299
190 247
190 248
191 301
192 250
192 251
193 242
193 243
194 253
194 254
195 245
195 246
196 256
196 257
197 307
198 259
198 260
199 248
199 249
200 262
200 263
201 251
201 252
202 265
202 266
203 254
203 255
204 268
204 269
205 257
205 258
206 316
207 317
208 260
208 261
209 271
209 272
210 263
210 264
211 274
211 275
212 266
212 267
213 277
213 278
214 269
214 270
215 325
216 326
217 272
217 273
218 280
218 281
219 275
219 276
220 283
220 284
221 278
221 279
222 332
223 333
224 281
224 282
225 286
225 287
226 284
226 285
227 337
228 338
229 287
229 288
230 340
231 341
232 233
232 289
233 234
234 292
235 236
235 291
236 237
237 295
238 239
238 293
239 240
240 297
241 242
241 296
242 243
243 303
244 245
244 298
245 246
246 305
247 248
247 300
248 249
249 309
250 251
250 302
251 252
252 311
253 254
253 304
254 255
255 313
256 257
256 306
257 258
258 315
259 260
259 308
260 261
261 318
262 263
262 310
263 264
264 320
265 266
265 312
266 267
267 322
268 269
268 314
269 270
270 324
271 272
271 319
272 273
273 327
274 275
274 321
275 276
276 329
277 278
277 323
278 279
279 331
280 281
280 328
281 282
282 334
283 284
283 330
284 285
285 336
286 287
286 335
287 288
288 339
289 342
289 343
290 343
290 344
291 345
291 346
292 346
292 347
293 348
293 349
294 349
294 350
295 417
296 351
296 352
297 352
297 353
298 354
298 355
299 355
299 356
300 357
300 358
301 358
301 359
302 360
302 361
303 361
303 362
304 363
304 364
305 364
305 365
306 366
306 367
307 367
307 368
308 369
308 370
309 370
309 371
310 372
310 373
311 373
311 374
312 375
312 376
313 376
313 377
314 378
314 379
315 379
315 380
316 438
317 381
317 382
318 382
318 383
319 384
319 385
320 385
320 386
321 387
321 388
322 388
322 389
323 390
323 391
324 391
324 392
325 447
326 393
326 394
327 394
327 395
328 396
328 397
329 397
329 398
330 399
330 400
331 400
331 401
332 454
333 402
333 403
334 403
334 404
335 405
335 406
336 406
336 407
337 459
338 408
338 409
339 409
339 410
340 462
341 463
342 343
342 411
343 344
344 412
345 346
345 413
346 347
347 414
348 349
348 415
349 350
350 416
351 352
351 418
352 353
353 419
354 355
354 420
355 356
356 421
357 358
357 422
358 359
359 423
360 361
360 424
361 362
362 425
363 364
363 426
364 365
365 427
366 367
366 428
367 368
368 429
369 370
369 430
370 371
371 431
372 373
372 432
373 374
374 433
375 376
375 434
376 377
377 435
378 379
378 436
379 380
380 437
381 382
381 439
382 383
383 440
384 385
384 441
385 386
386 442
387 388
387 443
388 389
389 444
390 391
390 445
391 392
392 446
393 394
393 448
394 395
395 449
396 397
396 450
397 398
398 451
399 400
399 452
400 401
401 453
402 403
402 455
403 404
404 456
405 406
405 457
406 407
407 458
408 409
408 460
409 410
410 461
411 524
412 525
413 526
414 464
414 465
415 465
415 466
416 529
417 467
417 468
418 468
418 469
419 470
419 471
420 471
420 472
421 534
422 535
423 473
423 474
424 474
424 475
425 476
425 477
426 477
426 478
427 479
427 480
428 480
428 481
429 542
430 543
431 482
431 483
432 483
432 484
433 485
433 486
434 486
434 487
435 488
435 489
436 489
436 490
437 491
437 492
438 492
438 493
439 552
440 494
440 495
441 495
441 496
442 497
442 498
443 498
443 499
444 500
444 501
445 501
445 502
446 503
446 504
447 504
447 505
448 561
449 506
449 507
450 507
450 508
451 509
451 510
452 510
452 511
453 512
453 513
454 513
454 514
455 568
456 515
456 516
457 516
457 517
458 518
458 519
459 519
459 520
460 573
461 521
461 522
462 522
462 523
463 576
464 465
464 527
465 466
466 528
467 468
467 530
468 469
469 531
470 471
470 532
471 472
472 533
473 474
473 536
474 475
475 537
476 477
476 538
477 478
478 539
479 480
479 540
480 481
481 541
482 483
482 544
483 484
484 545
485 486
485 546
486 487
487 547
488 489
488 548
489 490
490 549
491 492
491 550
492 493
493 551
494 495
494 553
495 496
496 554
497 498
497 555
498 499
499 556
500 501
500 557
501 502
502 558
503 504
503 559
504 505
505 560
506 507
506 562
507 508
508 563
509 510
509 564
510 511
511 565
512 513
512 566
513 514
514 567
515 516
515 569
516 517
517 570
518 519
518 571
519 520
520 572
521 522
521 574
522 523
523 575
